c Sudoku solution
p cnf 729 0
237 0
248 0
273 0
285 0
296 0
328 0
346 0
363 0
382 0
399 0
525 0
562 0
643 0
675 0
688 0
697 0
739 0
786 0
831 0
877 0
187 0
357 0
893 0
926 0
955 0
753 0
815 0
795 0
335 0
964 0
992 0
472 0
576 0
979 0
778 0
981 0
884 0
822 0
742 0
849 0
761 0
947 0
467 0
445 0
517 0
714 0
727 0
311 0
374 0
165 0
269 0
251 0
144 0
152 0
212 0
224 0
632 0
654 0
541 0
594 0
491 0
621 0
434 0
136 0
868 0
856 0
666 0
416 0
619 0
538 0
423 0
489 0
583 0
458 0
559 0
918 0
933 0
113 0
129 0
171 0
198 0
